$CONTRL SCFTYP={self.resolve_scftype()} None RUNTYP=OPTIMIZE ICHARG=2
            COORD=UNIQUE MULT=2 MAXIT=200 ISPHER=1 $END
            $SYSTEM MWORDS=50 MEMDDI =30 $END
            $STATPT NSTEP=100 HSSEND=.T. $END
            $BASIS  GBASIS=ccd $END
            $GUESS  GUESS=HUCKEL $END
            $DATA
            Geometry with 3 atoms
            c1
            N  7	0.000000000    0.000000000   -0.324503807
O  8	0.000000000    1.104583330    0.142043685
O  8	0.000000000   -1.104583330    0.142043685

            $END